N = 5;
H = 6;
T = 2;

avail = array3d(1..N, 1..H, 1..T, [10, 10, 0, 6, 7, 0, 6, 3, 10, 4, 4, 7, 0, 1, 5, 8, 7, 3, 3, 7, 10, 4, 4, 4, 0, 0, 6, 7, 0, 4, 4, 1, 5, 10, 9, 4, 7, 1, 8, 7, 5, 1, 3, 4, 8, 0, 2, 4, 7, 1, 2, 3, 6, 2, 1, 10, 3, 1, 3, 2]);

r = array2d(1..H, 1..T, [1, 1, 0, 0, 2, 1, 0, 1, 1, 1, 2, 1]);
